c generated by sgen
p cnf 57 124
-2 -3 -4 0
-1 -3 -4 0
-1 -2 -4 0
-1 -2 -3 0
-6 -7 -8 0
-5 -7 -8 0
-5 -6 -8 0
-5 -6 -7 0
-10 -11 -12 0
-9 -11 -12 0
-9 -10 -12 0
-9 -10 -11 0
-14 -15 -16 0
-13 -15 -16 0
-13 -14 -16 0
-13 -14 -15 0
-18 -19 -20 0
-17 -19 -20 0
-17 -18 -20 0
-17 -18 -19 0
-22 -23 -24 0
-21 -23 -24 0
-21 -22 -24 0
-21 -22 -23 0
-26 -27 -28 0
-25 -27 -28 0
-25 -26 -28 0
-25 -26 -27 0
-30 -31 -32 0
-29 -31 -32 0
-29 -30 -32 0
-29 -30 -31 0
-34 -35 -36 0
-33 -35 -36 0
-33 -34 -36 0
-33 -34 -35 0
-38 -39 -40 0
-37 -39 -40 0
-37 -38 -40 0
-37 -38 -39 0
-42 -43 -44 0
-41 -43 -44 0
-41 -42 -44 0
-41 -42 -43 0
-46 -47 -48 0
-45 -47 -48 0
-45 -46 -48 0
-45 -46 -47 0
-50 -51 -52 0
-49 -51 -52 0
-49 -50 -52 0
-49 -50 -51 0
-53 -54 -55 0
-53 -54 -56 0
-53 -54 -57 0
-53 -55 -56 0
-53 -55 -57 0
-53 -56 -57 0
-54 -55 -56 0
-54 -55 -57 0
-54 -56 -57 0
-55 -56 -57 0
27 41 7 0
32 41 7 0
32 27 7 0
32 27 41 0
39 5 52 0
56 5 52 0
56 39 52 0
56 39 5 0
21 44 38 0
46 44 38 0
46 21 38 0
46 21 44 0
35 1 37 0
29 1 37 0
29 35 37 0
29 35 1 0
28 36 51 0
19 36 51 0
19 28 51 0
19 28 36 0
54 2 23 0
26 2 23 0
26 54 23 0
26 54 2 0
24 14 34 0
6 14 34 0
6 24 34 0
6 24 14 0
4 15 43 0
49 15 43 0
49 4 43 0
49 4 15 0
57 33 45 0
12 33 45 0
12 57 45 0
12 57 33 0
8 3 17 0
47 3 17 0
47 8 17 0
47 8 3 0
31 9 50 0
22 9 50 0
22 31 50 0
22 31 9 0
42 55 11 0
18 55 11 0
18 42 11 0
18 42 55 0
40 25 10 0
16 25 10 0
16 40 10 0
16 40 25 0
48 20 53 0
48 20 30 0
48 20 13 0
48 53 30 0
48 53 13 0
48 30 13 0
20 53 30 0
20 53 13 0
20 30 13 0
53 30 13 0
